
Gurobi 6.5.2 (win64) logging started 07/24/16 17:26:04


Gurobi 6.5.2 (win64) logging started 07/24/16 17:26:04

Optimize a model with 1348 rows, 613 columns and 3725 nonzeros
Coefficient statistics:
  Matrix range    [6e-08, 4e+02]
  Objective range [1e+00, 1e+00]
  Bounds range    [1e+00, 1e+00]
  RHS range       [6e-06, 2e+03]
Presolve removed 807 rows and 138 columns
Presolve time: 0.02s
Presolved: 541 rows, 475 columns, 2308 nonzeros
Variable types: 265 continuous, 210 integer (210 binary)

Root relaxation: objective 1.892749e+01, 566 iterations, 0.02 seconds

    Nodes    |    Current Node    |     Objective Bounds      |     Work
 Expl Unexpl |  Obj  Depth IntInf | Incumbent    BestBd   Gap | It/Node Time

     0     0   18.92749    0   81          -   18.92749      -     -    0s
     0     0   22.25672    0   64          -   22.25672      -     -    0s
H    0     0                      23.0186860   22.25672  3.31%     -    0s
     0     0   22.64177    0   61   23.01869   22.64177  1.64%     -    0s
     0     0   22.66336    0   61   23.01869   22.66336  1.54%     -    0s
H    0     0                      23.0086389   22.66336  1.50%     -    0s
     0     0   22.66336    0   57   23.00864   22.66336  1.50%     -    0s
     0     0   22.66336    0   28   23.00864   22.66336  1.50%     -    0s
     0     0   22.66336    0   33   23.00864   22.66336  1.50%     -    0s
     0     0   22.66336    0   36   23.00864   22.66336  1.50%     -    0s
     0     0   22.66635    0   36   23.00864   22.66635  1.49%     -    0s
     0     0   22.66635    0   36   23.00864   22.66635  1.49%     -    0s
     0     0   22.66635    0   34   23.00864   22.66635  1.49%     -    0s
     0     2   22.66635    0   34   23.00864   22.66635  1.49%     -    0s
H   27     0                      22.9715709   22.71477  1.12%   4.1    0s
*   32     0              24      22.8621303   22.71477  0.64%   3.9    0s

Cutting planes:
  Gomory: 2
  MIR: 17

Explored 1260 nodes (5051 simplex iterations) in 0.20 seconds
Thread count was 8 (of 8 available processors)

Optimal solution found (tolerance 1.00e-04)
Best objective 2.286213026357e+01, best bound 2.286213026357e+01, gap 0.0%

Wrote requested result file 'H1\instance7\\Results7E_Sol6.lp'

